
%    +-----------+
% 8  | | | | | | |
% 7  | |6| | | | |
% 6  | | | | | | |
% 5  | | | |5| | |
% 4  | | | | | | |
% 3  | |1|1| | | |
% 2  | |1|1|3|4| |
% 1  | | | | |2| |
%    +-----------+
n=6;
m=8;
h=2;
%maxT=30;
boxNumber=6;
boxSideLen = [2, 1, 1, 1, 1, 1];
boxStartX  = [2, 5, 4, 5, 4, 2];
boxStartY  = [2, 1, 2, 2, 5, 7];
